4
7
6
2
15
9
4
8
6
5
11
5
1
15
14
13
0
0
6
2
11
17
4
0
9
1
22
8
21
3
20
14
2
15
5
11
18
12
11
0
8
20
17
14
9
12
5
4
14
16
8
18
4
3
18
10
9
6
2
8
13
6
19
13
7
3
3
8
18
16
13
17
1
19
4
11
21
13
1
15
12
1
15
7
4
21
9
9
18
14
10
18
5
11
14
20
12
10
6
3
17
10
7
12
20
1
2
13
11
16
22
16
15
5
9
19
19
1
22
19
16
0
2
16
7
used color num : 23
